Optimize a model with 1 rows, 3 columns and 3 nonzeros
Model has 2 quadratic constraints
Presolve time: 0.00s
Presolved: 6 rows, 6 columns, 13 nonzeros
Presolved model has 2 second-order cone constraints
Ordering time: 0.00s

Barrier statistics:
 AA' NZ     : 1.500e+01
 Factor NZ  : 2.100e+01
 Factor Ops : 9.100e+01 (less than 1 second per iteration)
 Threads    : 1

                  Objective                Residual
Iter       Primal          Dual         Primal    Dual     Compl     Time
   0   2.38095238e-01  2.38095238e-01  8.33e-17 4.33e-01  9.23e-02     0s
   1   3.21838268e-01  3.62479306e-01  5.55e-17 1.21e-02  7.57e-03     0s
   2   3.26476494e-01  3.31039627e-01  8.48e-14 4.59e-04  6.51e-04     0s
   3   3.26765907e-01  3.27045533e-01  1.00e-14 1.12e-07  3.50e-05     0s
   4   3.26991550e-01  3.26994123e-01  9.18e-13 5.29e-11  3.22e-07     0s
   5   3.26992789e-01  3.26992838e-01  5.78e-12 1.20e-13  6.12e-09     0s

Barrier solved model in 5 iterations and 0.00 seconds
Optimal objective 3.26992789e-01


Gurobi 5.0.1 (linux64) logging started Sun Oct  7 19:56:30 2012

Optimize a model with 1 rows, 3 columns and 3 nonzeros
Model has 2 quadratic constraints
Presolve time: 0.00s
Presolved: 6 rows, 6 columns, 13 nonzeros
Presolved model has 2 second-order cone constraints
Ordering time: 0.00s

Barrier statistics:
 AA' NZ     : 1.500e+01
 Factor NZ  : 2.100e+01
 Factor Ops : 9.100e+01 (less than 1 second per iteration)
 Threads    : 1

                  Objective                Residual
Iter       Primal          Dual         Primal    Dual     Compl     Time
   0   2.38095238e-01  2.38095238e-01  8.33e-17 4.33e-01  9.23e-02     0s
   1   3.21838268e-01  3.62479306e-01  5.55e-17 1.21e-02  7.57e-03     0s
   2   3.26476494e-01  3.31039627e-01  8.48e-14 4.59e-04  6.51e-04     0s
   3   3.26765907e-01  3.27045533e-01  1.00e-14 1.12e-07  3.50e-05     0s
   4   3.26991550e-01  3.26994123e-01  9.18e-13 5.29e-11  3.22e-07     0s
   5   3.26992789e-01  3.26992838e-01  5.78e-12 1.20e-13  6.12e-09     0s

Barrier solved model in 5 iterations and 0.00 seconds
Optimal objective 3.26992789e-01


Gurobi 5.0.1 (linux64) logging started Sun Oct  7 20:36:50 2012

